c 1 __UCLIBC_HAS_CTYPE_TABLES__
c 7 __UCLIBC_HAS_IPV6__
c 2 __UCLIBC_HAS_THREADS_NATIVE__
c 6 __UCLIBC_HAS_SOCKET__
c 8 __UCLIBC_HAS_IPV4__
c 3 __UCLIBC_HAS_XLOCALE__
c 5 __UCLIBC_HAS_LOCALE__
c 4 __UCLIBC_HAS_THREADS__
p cnf 8 3
-1 -6 -3 -4 -2 5 1
-7 -1 -3 -4 -2 5 1
-8 -1 -3 -4 -2 5 1
